0 40 43
1 22 44
2 41 44
3 39 42
4 42 43
5 27 41
6 40 41
7 42 42
8 22 41
9 38 39
10 37 42
11 40 42
12 37 38
13 35 38
14 33 37
15 37 37
16 34 36
17 35 35
18 20 34
19 14 33
20 37 37
21 30 36
22 33 33
23 29 30
24 26 27
25 23 27
26 25 28
27 26 28
28 21 26
29 21 25
30 18 24
31 10 22
32 11 20
33 17 21
34 15 20
35 16 19
36 15 17
37 17 17
38 12 17
39 18 18
40 12 17
41 13 14
42 7 12
43 8 10
44 2 8
45 7 8
46 7 7
47 5 6
48 2 3
49 3 3
50 2 2

